(set-option :produce-models true)
(set-logic QF_LRA)
(set-info :notes | Strip-packing problem.|)
(declare-fun x0 () Real)
(declare-fun y0 () Real)
(declare-fun x1 () Real)
(declare-fun y1 () Real)
(declare-fun x2 () Real)
(declare-fun y2 () Real)
(declare-fun x3 () Real)
(declare-fun y3 () Real)
(declare-fun x4 () Real)
(declare-fun y4 () Real)
(declare-fun x5 () Real)
(declare-fun y5 () Real)
(declare-fun x6 () Real)
(declare-fun y6 () Real)
(declare-fun x7 () Real)
(declare-fun y7 () Real)
(declare-fun x8 () Real)
(declare-fun y8 () Real)
(declare-fun x9 () Real)
(declare-fun y9 () Real)
(declare-fun x10 () Real)
(declare-fun y10 () Real)
(declare-fun x11 () Real)
(declare-fun y11 () Real)
(declare-fun x12 () Real)
(declare-fun y12 () Real)
(declare-fun x13 () Real)
(declare-fun y13 () Real)
(declare-fun x14 () Real)
(declare-fun y14 () Real)
(declare-fun z () Real)
(declare-fun c () Real)
(assert (and (= c z) (and (>= x0 0) 
(and (>= y0 0) 
(and (>= x1 0) 
(and (>= y1 0) 
(and (>= x2 0) 
(and (>= y2 0) 
(and (>= x3 0) 
(and (>= y3 0) 
(and (>= x4 0) 
(and (>= y4 0) 
(and (>= x5 0) 
(and (>= y5 0) 
(and (>= x6 0) 
(and (>= y6 0) 
(and (>= x7 0) 
(and (>= y7 0) 
(and (>= x8 0) 
(and (>= y8 0) 
(and (>= x9 0) 
(and (>= y9 0) 
(and (>= x10 0) 
(and (>= y10 0) 
(and (>= x11 0) 
(and (>= y11 0) 
(and (>= x12 0) 
(and (>= y12 0) 
(and (>= x13 0) 
(and (>= y13 0) 
(and (>= x14 0) 
(and (>= y14 0) 
(and (>= z 0) 
(and (>= c 0) 
(and (<= (+ x0 0.4647952178) z) 
(and (<= 0.9323689684 y0) 
(and (<= y0 1.9364916731) 
(and (<= x0 (- 3.958564015 0.4647952178)) 
(and (>= x0 0) 
(and (<= (+ x1 0.7573244644) z) 
(and (<= 0.9273548871 y1) 
(and (<= y1 1.9364916731) 
(and (<= x1 (- 3.958564015 0.7573244644)) 
(and (>= x1 0) 
(and (<= (+ x2 0.7899913045) z) 
(and (<= 0.742723025 y2) 
(and (<= y2 1.9364916731) 
(and (<= x2 (- 3.958564015 0.7899913045)) 
(and (>= x2 0) 
(and (<= (+ x3 0.4609184354) z) 
(and (<= 0.7108035564 y3) 
(and (<= y3 1.9364916731) 
(and (<= x3 (- 3.958564015 0.4609184354)) 
(and (>= x3 0) 
(and (<= (+ x4 0.0111887896) z) 
(and (<= 0.5384669899 y4) 
(and (<= y4 1.9364916731) 
(and (<= x4 (- 3.958564015 0.0111887896)) 
(and (>= x4 0) 
(and (<= (+ x5 0.6028017374) z) 
(and (<= 0.3584218462 y5) 
(and (<= y5 1.9364916731) 
(and (<= x5 (- 3.958564015 0.6028017374)) 
(and (>= x5 0) 
(and (<= (+ x6 0.9699630914) z) 
(and (<= 0.3463642461 y6) 
(and (<= y6 1.9364916731) 
(and (<= x6 (- 3.958564015 0.9699630914)) 
(and (>= x6 0) 
(and (<= (+ x7 0.0278308926) z) 
(and (<= 0.3455761794 y7) 
(and (<= y7 1.9364916731) 
(and (<= x7 (- 3.958564015 0.0278308926)) 
(and (>= x7 0) 
(and (<= (+ x8 0.434347532) z) 
(and (<= 0.3261062408 y8) 
(and (<= y8 1.9364916731) 
(and (<= x8 (- 3.958564015 0.434347532)) 
(and (>= x8 0) 
(and (<= (+ x9 0.3280302861) z) 
(and (<= 0.2369882581 y9) 
(and (<= y9 1.9364916731) 
(and (<= x9 (- 3.958564015 0.3280302861)) 
(and (>= x9 0) 
(and (<= (+ x10 0.9764899369) z) 
(and (<= 0.1947057131 y10) 
(and (<= y10 1.9364916731) 
(and (<= x10 (- 3.958564015 0.9764899369)) 
(and (>= x10 0) 
(and (<= (+ x11 0.8400989778) z) 
(and (<= 0.1580972685 y11) 
(and (<= y11 1.9364916731) 
(and (<= x11 (- 3.958564015 0.8400989778)) 
(and (>= x11 0) 
(and (<= (+ x12 0.3612771812) z) 
(and (<= 0.1048243495 y12) 
(and (<= y12 1.9364916731) 
(and (<= x12 (- 3.958564015 0.3612771812)) 
(and (>= x12 0) 
(and (<= (+ x13 0.4004452711) z) 
(and (<= 0.0825373351 y13) 
(and (<= y13 1.9364916731) 
(and (<= x13 (- 3.958564015 0.4004452711)) 
(and (>= x13 0) 
(and (<= (+ x14 0.0065149924) z) 
(and (<= 0.0074280058 y14) 
(and (<= y14 1.9364916731) 
(and (<= x14 (- 3.958564015 0.0065149924)) 
(and (>= x14 0) 
(and (<= c 3.958564015) 
(and (or (<= (+ x0 0.4647952178) x1) (or (<= (+ x1 0.7573244644) x0) (or (>= (- y0 0.9323689684) y1) (or (>= (- y1 0.9273548871) y0))))) 
(and (or (<= (+ x0 0.4647952178) x2) (or (<= (+ x2 0.7899913045) x0) (or (>= (- y0 0.9323689684) y2) (or (>= (- y2 0.742723025) y0))))) 
(and (or (<= (+ x0 0.4647952178) x3) (or (<= (+ x3 0.4609184354) x0) (or (>= (- y0 0.9323689684) y3) (or (>= (- y3 0.7108035564) y0))))) 
(and (or (<= (+ x0 0.4647952178) x4) (or (<= (+ x4 0.0111887896) x0) (or (>= (- y0 0.9323689684) y4) (or (>= (- y4 0.5384669899) y0))))) 
(and (or (<= (+ x0 0.4647952178) x5) (or (<= (+ x5 0.6028017374) x0) (or (>= (- y0 0.9323689684) y5) (or (>= (- y5 0.3584218462) y0))))) 
(and (or (<= (+ x0 0.4647952178) x6) (or (<= (+ x6 0.9699630914) x0) (or (>= (- y0 0.9323689684) y6) (or (>= (- y6 0.3463642461) y0))))) 
(and (or (<= (+ x0 0.4647952178) x7) (or (<= (+ x7 0.0278308926) x0) (or (>= (- y0 0.9323689684) y7) (or (>= (- y7 0.3455761794) y0))))) 
(and (or (<= (+ x0 0.4647952178) x8) (or (<= (+ x8 0.434347532) x0) (or (>= (- y0 0.9323689684) y8) (or (>= (- y8 0.3261062408) y0))))) 
(and (or (<= (+ x0 0.4647952178) x9) (or (<= (+ x9 0.3280302861) x0) (or (>= (- y0 0.9323689684) y9) (or (>= (- y9 0.2369882581) y0))))) 
(and (or (<= (+ x0 0.4647952178) x10) (or (<= (+ x10 0.9764899369) x0) (or (>= (- y0 0.9323689684) y10) (or (>= (- y10 0.1947057131) y0))))) 
(and (or (<= (+ x0 0.4647952178) x11) (or (<= (+ x11 0.8400989778) x0) (or (>= (- y0 0.9323689684) y11) (or (>= (- y11 0.1580972685) y0))))) 
(and (or (<= (+ x0 0.4647952178) x12) (or (<= (+ x12 0.3612771812) x0) (or (>= (- y0 0.9323689684) y12) (or (>= (- y12 0.1048243495) y0))))) 
(and (or (<= (+ x0 0.4647952178) x13) (or (<= (+ x13 0.4004452711) x0) (or (>= (- y0 0.9323689684) y13) (or (>= (- y13 0.0825373351) y0))))) 
(and (or (<= (+ x0 0.4647952178) x14) (or (<= (+ x14 0.0065149924) x0) (or (>= (- y0 0.9323689684) y14) (or (>= (- y14 0.0074280058) y0))))) 
(and (or (<= (+ x1 0.7573244644) x2) (or (<= (+ x2 0.7899913045) x1) (or (>= (- y1 0.9273548871) y2) (or (>= (- y2 0.742723025) y1))))) 
(and (or (<= (+ x1 0.7573244644) x3) (or (<= (+ x3 0.4609184354) x1) (or (>= (- y1 0.9273548871) y3) (or (>= (- y3 0.7108035564) y1))))) 
(and (or (<= (+ x1 0.7573244644) x4) (or (<= (+ x4 0.0111887896) x1) (or (>= (- y1 0.9273548871) y4) (or (>= (- y4 0.5384669899) y1))))) 
(and (or (<= (+ x1 0.7573244644) x5) (or (<= (+ x5 0.6028017374) x1) (or (>= (- y1 0.9273548871) y5) (or (>= (- y5 0.3584218462) y1))))) 
(and (or (<= (+ x1 0.7573244644) x6) (or (<= (+ x6 0.9699630914) x1) (or (>= (- y1 0.9273548871) y6) (or (>= (- y6 0.3463642461) y1))))) 
(and (or (<= (+ x1 0.7573244644) x7) (or (<= (+ x7 0.0278308926) x1) (or (>= (- y1 0.9273548871) y7) (or (>= (- y7 0.3455761794) y1))))) 
(and (or (<= (+ x1 0.7573244644) x8) (or (<= (+ x8 0.434347532) x1) (or (>= (- y1 0.9273548871) y8) (or (>= (- y8 0.3261062408) y1))))) 
(and (or (<= (+ x1 0.7573244644) x9) (or (<= (+ x9 0.3280302861) x1) (or (>= (- y1 0.9273548871) y9) (or (>= (- y9 0.2369882581) y1))))) 
(and (or (<= (+ x1 0.7573244644) x10) (or (<= (+ x10 0.9764899369) x1) (or (>= (- y1 0.9273548871) y10) (or (>= (- y10 0.1947057131) y1))))) 
(and (or (<= (+ x1 0.7573244644) x11) (or (<= (+ x11 0.8400989778) x1) (or (>= (- y1 0.9273548871) y11) (or (>= (- y11 0.1580972685) y1))))) 
(and (or (<= (+ x1 0.7573244644) x12) (or (<= (+ x12 0.3612771812) x1) (or (>= (- y1 0.9273548871) y12) (or (>= (- y12 0.1048243495) y1))))) 
(and (or (<= (+ x1 0.7573244644) x13) (or (<= (+ x13 0.4004452711) x1) (or (>= (- y1 0.9273548871) y13) (or (>= (- y13 0.0825373351) y1))))) 
(and (or (<= (+ x1 0.7573244644) x14) (or (<= (+ x14 0.0065149924) x1) (or (>= (- y1 0.9273548871) y14) (or (>= (- y14 0.0074280058) y1))))) 
(and (or (<= (+ x2 0.7899913045) x3) (or (<= (+ x3 0.4609184354) x2) (or (>= (- y2 0.742723025) y3) (or (>= (- y3 0.7108035564) y2))))) 
(and (or (<= (+ x2 0.7899913045) x4) (or (<= (+ x4 0.0111887896) x2) (or (>= (- y2 0.742723025) y4) (or (>= (- y4 0.5384669899) y2))))) 
(and (or (<= (+ x2 0.7899913045) x5) (or (<= (+ x5 0.6028017374) x2) (or (>= (- y2 0.742723025) y5) (or (>= (- y5 0.3584218462) y2))))) 
(and (or (<= (+ x2 0.7899913045) x6) (or (<= (+ x6 0.9699630914) x2) (or (>= (- y2 0.742723025) y6) (or (>= (- y6 0.3463642461) y2))))) 
(and (or (<= (+ x2 0.7899913045) x7) (or (<= (+ x7 0.0278308926) x2) (or (>= (- y2 0.742723025) y7) (or (>= (- y7 0.3455761794) y2))))) 
(and (or (<= (+ x2 0.7899913045) x8) (or (<= (+ x8 0.434347532) x2) (or (>= (- y2 0.742723025) y8) (or (>= (- y8 0.3261062408) y2))))) 
(and (or (<= (+ x2 0.7899913045) x9) (or (<= (+ x9 0.3280302861) x2) (or (>= (- y2 0.742723025) y9) (or (>= (- y9 0.2369882581) y2))))) 
(and (or (<= (+ x2 0.7899913045) x10) (or (<= (+ x10 0.9764899369) x2) (or (>= (- y2 0.742723025) y10) (or (>= (- y10 0.1947057131) y2))))) 
(and (or (<= (+ x2 0.7899913045) x11) (or (<= (+ x11 0.8400989778) x2) (or (>= (- y2 0.742723025) y11) (or (>= (- y11 0.1580972685) y2))))) 
(and (or (<= (+ x2 0.7899913045) x12) (or (<= (+ x12 0.3612771812) x2) (or (>= (- y2 0.742723025) y12) (or (>= (- y12 0.1048243495) y2))))) 
(and (or (<= (+ x2 0.7899913045) x13) (or (<= (+ x13 0.4004452711) x2) (or (>= (- y2 0.742723025) y13) (or (>= (- y13 0.0825373351) y2))))) 
(and (or (<= (+ x2 0.7899913045) x14) (or (<= (+ x14 0.0065149924) x2) (or (>= (- y2 0.742723025) y14) (or (>= (- y14 0.0074280058) y2))))) 
(and (or (<= (+ x3 0.4609184354) x4) (or (<= (+ x4 0.0111887896) x3) (or (>= (- y3 0.7108035564) y4) (or (>= (- y4 0.5384669899) y3))))) 
(and (or (<= (+ x3 0.4609184354) x5) (or (<= (+ x5 0.6028017374) x3) (or (>= (- y3 0.7108035564) y5) (or (>= (- y5 0.3584218462) y3))))) 
(and (or (<= (+ x3 0.4609184354) x6) (or (<= (+ x6 0.9699630914) x3) (or (>= (- y3 0.7108035564) y6) (or (>= (- y6 0.3463642461) y3))))) 
(and (or (<= (+ x3 0.4609184354) x7) (or (<= (+ x7 0.0278308926) x3) (or (>= (- y3 0.7108035564) y7) (or (>= (- y7 0.3455761794) y3))))) 
(and (or (<= (+ x3 0.4609184354) x8) (or (<= (+ x8 0.434347532) x3) (or (>= (- y3 0.7108035564) y8) (or (>= (- y8 0.3261062408) y3))))) 
(and (or (<= (+ x3 0.4609184354) x9) (or (<= (+ x9 0.3280302861) x3) (or (>= (- y3 0.7108035564) y9) (or (>= (- y9 0.2369882581) y3))))) 
(and (or (<= (+ x3 0.4609184354) x10) (or (<= (+ x10 0.9764899369) x3) (or (>= (- y3 0.7108035564) y10) (or (>= (- y10 0.1947057131) y3))))) 
(and (or (<= (+ x3 0.4609184354) x11) (or (<= (+ x11 0.8400989778) x3) (or (>= (- y3 0.7108035564) y11) (or (>= (- y11 0.1580972685) y3))))) 
(and (or (<= (+ x3 0.4609184354) x12) (or (<= (+ x12 0.3612771812) x3) (or (>= (- y3 0.7108035564) y12) (or (>= (- y12 0.1048243495) y3))))) 
(and (or (<= (+ x3 0.4609184354) x13) (or (<= (+ x13 0.4004452711) x3) (or (>= (- y3 0.7108035564) y13) (or (>= (- y13 0.0825373351) y3))))) 
(and (or (<= (+ x3 0.4609184354) x14) (or (<= (+ x14 0.0065149924) x3) (or (>= (- y3 0.7108035564) y14) (or (>= (- y14 0.0074280058) y3))))) 
(and (or (<= (+ x4 0.0111887896) x5) (or (<= (+ x5 0.6028017374) x4) (or (>= (- y4 0.5384669899) y5) (or (>= (- y5 0.3584218462) y4))))) 
(and (or (<= (+ x4 0.0111887896) x6) (or (<= (+ x6 0.9699630914) x4) (or (>= (- y4 0.5384669899) y6) (or (>= (- y6 0.3463642461) y4))))) 
(and (or (<= (+ x4 0.0111887896) x7) (or (<= (+ x7 0.0278308926) x4) (or (>= (- y4 0.5384669899) y7) (or (>= (- y7 0.3455761794) y4))))) 
(and (or (<= (+ x4 0.0111887896) x8) (or (<= (+ x8 0.434347532) x4) (or (>= (- y4 0.5384669899) y8) (or (>= (- y8 0.3261062408) y4))))) 
(and (or (<= (+ x4 0.0111887896) x9) (or (<= (+ x9 0.3280302861) x4) (or (>= (- y4 0.5384669899) y9) (or (>= (- y9 0.2369882581) y4))))) 
(and (or (<= (+ x4 0.0111887896) x10) (or (<= (+ x10 0.9764899369) x4) (or (>= (- y4 0.5384669899) y10) (or (>= (- y10 0.1947057131) y4))))) 
(and (or (<= (+ x4 0.0111887896) x11) (or (<= (+ x11 0.8400989778) x4) (or (>= (- y4 0.5384669899) y11) (or (>= (- y11 0.1580972685) y4))))) 
(and (or (<= (+ x4 0.0111887896) x12) (or (<= (+ x12 0.3612771812) x4) (or (>= (- y4 0.5384669899) y12) (or (>= (- y12 0.1048243495) y4))))) 
(and (or (<= (+ x4 0.0111887896) x13) (or (<= (+ x13 0.4004452711) x4) (or (>= (- y4 0.5384669899) y13) (or (>= (- y13 0.0825373351) y4))))) 
(and (or (<= (+ x4 0.0111887896) x14) (or (<= (+ x14 0.0065149924) x4) (or (>= (- y4 0.5384669899) y14) (or (>= (- y14 0.0074280058) y4))))) 
(and (or (<= (+ x5 0.6028017374) x6) (or (<= (+ x6 0.9699630914) x5) (or (>= (- y5 0.3584218462) y6) (or (>= (- y6 0.3463642461) y5))))) 
(and (or (<= (+ x5 0.6028017374) x7) (or (<= (+ x7 0.0278308926) x5) (or (>= (- y5 0.3584218462) y7) (or (>= (- y7 0.3455761794) y5))))) 
(and (or (<= (+ x5 0.6028017374) x8) (or (<= (+ x8 0.434347532) x5) (or (>= (- y5 0.3584218462) y8) (or (>= (- y8 0.3261062408) y5))))) 
(and (or (<= (+ x5 0.6028017374) x9) (or (<= (+ x9 0.3280302861) x5) (or (>= (- y5 0.3584218462) y9) (or (>= (- y9 0.2369882581) y5))))) 
(and (or (<= (+ x5 0.6028017374) x10) (or (<= (+ x10 0.9764899369) x5) (or (>= (- y5 0.3584218462) y10) (or (>= (- y10 0.1947057131) y5))))) 
(and (or (<= (+ x5 0.6028017374) x11) (or (<= (+ x11 0.8400989778) x5) (or (>= (- y5 0.3584218462) y11) (or (>= (- y11 0.1580972685) y5))))) 
(and (or (<= (+ x5 0.6028017374) x12) (or (<= (+ x12 0.3612771812) x5) (or (>= (- y5 0.3584218462) y12) (or (>= (- y12 0.1048243495) y5))))) 
(and (or (<= (+ x5 0.6028017374) x13) (or (<= (+ x13 0.4004452711) x5) (or (>= (- y5 0.3584218462) y13) (or (>= (- y13 0.0825373351) y5))))) 
(and (or (<= (+ x5 0.6028017374) x14) (or (<= (+ x14 0.0065149924) x5) (or (>= (- y5 0.3584218462) y14) (or (>= (- y14 0.0074280058) y5))))) 
(and (or (<= (+ x6 0.9699630914) x7) (or (<= (+ x7 0.0278308926) x6) (or (>= (- y6 0.3463642461) y7) (or (>= (- y7 0.3455761794) y6))))) 
(and (or (<= (+ x6 0.9699630914) x8) (or (<= (+ x8 0.434347532) x6) (or (>= (- y6 0.3463642461) y8) (or (>= (- y8 0.3261062408) y6))))) 
(and (or (<= (+ x6 0.9699630914) x9) (or (<= (+ x9 0.3280302861) x6) (or (>= (- y6 0.3463642461) y9) (or (>= (- y9 0.2369882581) y6))))) 
(and (or (<= (+ x6 0.9699630914) x10) (or (<= (+ x10 0.9764899369) x6) (or (>= (- y6 0.3463642461) y10) (or (>= (- y10 0.1947057131) y6))))) 
(and (or (<= (+ x6 0.9699630914) x11) (or (<= (+ x11 0.8400989778) x6) (or (>= (- y6 0.3463642461) y11) (or (>= (- y11 0.1580972685) y6))))) 
(and (or (<= (+ x6 0.9699630914) x12) (or (<= (+ x12 0.3612771812) x6) (or (>= (- y6 0.3463642461) y12) (or (>= (- y12 0.1048243495) y6))))) 
(and (or (<= (+ x6 0.9699630914) x13) (or (<= (+ x13 0.4004452711) x6) (or (>= (- y6 0.3463642461) y13) (or (>= (- y13 0.0825373351) y6))))) 
(and (or (<= (+ x6 0.9699630914) x14) (or (<= (+ x14 0.0065149924) x6) (or (>= (- y6 0.3463642461) y14) (or (>= (- y14 0.0074280058) y6))))) 
(and (or (<= (+ x7 0.0278308926) x8) (or (<= (+ x8 0.434347532) x7) (or (>= (- y7 0.3455761794) y8) (or (>= (- y8 0.3261062408) y7))))) 
(and (or (<= (+ x7 0.0278308926) x9) (or (<= (+ x9 0.3280302861) x7) (or (>= (- y7 0.3455761794) y9) (or (>= (- y9 0.2369882581) y7))))) 
(and (or (<= (+ x7 0.0278308926) x10) (or (<= (+ x10 0.9764899369) x7) (or (>= (- y7 0.3455761794) y10) (or (>= (- y10 0.1947057131) y7))))) 
(and (or (<= (+ x7 0.0278308926) x11) (or (<= (+ x11 0.8400989778) x7) (or (>= (- y7 0.3455761794) y11) (or (>= (- y11 0.1580972685) y7))))) 
(and (or (<= (+ x7 0.0278308926) x12) (or (<= (+ x12 0.3612771812) x7) (or (>= (- y7 0.3455761794) y12) (or (>= (- y12 0.1048243495) y7))))) 
(and (or (<= (+ x7 0.0278308926) x13) (or (<= (+ x13 0.4004452711) x7) (or (>= (- y7 0.3455761794) y13) (or (>= (- y13 0.0825373351) y7))))) 
(and (or (<= (+ x7 0.0278308926) x14) (or (<= (+ x14 0.0065149924) x7) (or (>= (- y7 0.3455761794) y14) (or (>= (- y14 0.0074280058) y7))))) 
(and (or (<= (+ x8 0.434347532) x9) (or (<= (+ x9 0.3280302861) x8) (or (>= (- y8 0.3261062408) y9) (or (>= (- y9 0.2369882581) y8))))) 
(and (or (<= (+ x8 0.434347532) x10) (or (<= (+ x10 0.9764899369) x8) (or (>= (- y8 0.3261062408) y10) (or (>= (- y10 0.1947057131) y8))))) 
(and (or (<= (+ x8 0.434347532) x11) (or (<= (+ x11 0.8400989778) x8) (or (>= (- y8 0.3261062408) y11) (or (>= (- y11 0.1580972685) y8))))) 
(and (or (<= (+ x8 0.434347532) x12) (or (<= (+ x12 0.3612771812) x8) (or (>= (- y8 0.3261062408) y12) (or (>= (- y12 0.1048243495) y8))))) 
(and (or (<= (+ x8 0.434347532) x13) (or (<= (+ x13 0.4004452711) x8) (or (>= (- y8 0.3261062408) y13) (or (>= (- y13 0.0825373351) y8))))) 
(and (or (<= (+ x8 0.434347532) x14) (or (<= (+ x14 0.0065149924) x8) (or (>= (- y8 0.3261062408) y14) (or (>= (- y14 0.0074280058) y8))))) 
(and (or (<= (+ x9 0.3280302861) x10) (or (<= (+ x10 0.9764899369) x9) (or (>= (- y9 0.2369882581) y10) (or (>= (- y10 0.1947057131) y9))))) 
(and (or (<= (+ x9 0.3280302861) x11) (or (<= (+ x11 0.8400989778) x9) (or (>= (- y9 0.2369882581) y11) (or (>= (- y11 0.1580972685) y9))))) 
(and (or (<= (+ x9 0.3280302861) x12) (or (<= (+ x12 0.3612771812) x9) (or (>= (- y9 0.2369882581) y12) (or (>= (- y12 0.1048243495) y9))))) 
(and (or (<= (+ x9 0.3280302861) x13) (or (<= (+ x13 0.4004452711) x9) (or (>= (- y9 0.2369882581) y13) (or (>= (- y13 0.0825373351) y9))))) 
(and (or (<= (+ x9 0.3280302861) x14) (or (<= (+ x14 0.0065149924) x9) (or (>= (- y9 0.2369882581) y14) (or (>= (- y14 0.0074280058) y9))))) 
(and (or (<= (+ x10 0.9764899369) x11) (or (<= (+ x11 0.8400989778) x10) (or (>= (- y10 0.1947057131) y11) (or (>= (- y11 0.1580972685) y10))))) 
(and (or (<= (+ x10 0.9764899369) x12) (or (<= (+ x12 0.3612771812) x10) (or (>= (- y10 0.1947057131) y12) (or (>= (- y12 0.1048243495) y10))))) 
(and (or (<= (+ x10 0.9764899369) x13) (or (<= (+ x13 0.4004452711) x10) (or (>= (- y10 0.1947057131) y13) (or (>= (- y13 0.0825373351) y10))))) 
(and (or (<= (+ x10 0.9764899369) x14) (or (<= (+ x14 0.0065149924) x10) (or (>= (- y10 0.1947057131) y14) (or (>= (- y14 0.0074280058) y10))))) 
(and (or (<= (+ x11 0.8400989778) x12) (or (<= (+ x12 0.3612771812) x11) (or (>= (- y11 0.1580972685) y12) (or (>= (- y12 0.1048243495) y11))))) 
(and (or (<= (+ x11 0.8400989778) x13) (or (<= (+ x13 0.4004452711) x11) (or (>= (- y11 0.1580972685) y13) (or (>= (- y13 0.0825373351) y11))))) 
(and (or (<= (+ x11 0.8400989778) x14) (or (<= (+ x14 0.0065149924) x11) (or (>= (- y11 0.1580972685) y14) (or (>= (- y14 0.0074280058) y11))))) 
(and (or (<= (+ x12 0.3612771812) x13) (or (<= (+ x13 0.4004452711) x12) (or (>= (- y12 0.1048243495) y13) (or (>= (- y13 0.0825373351) y12))))) 
(and (or (<= (+ x12 0.3612771812) x14) (or (<= (+ x14 0.0065149924) x12) (or (>= (- y12 0.1048243495) y14) (or (>= (- y14 0.0074280058) y12))))) 
(and (or (<= (+ x13 0.4004452711) x14) (or (<= (+ x14 0.0065149924) x13) (or (>= (- y13 0.0825373351) y14) (or (>= (- y14 0.0074280058) y13))))) )))))))))))))))))))))))))))))))))))))))))))))))))))))))))))))))))))))))))))))))))))))))))))))))))))))))))))))))))))))))))))))))))))))))))))))))))))))))))))))))))))))))))))))))))))))))))))))))))))))))))))))))))))))))
(minimize c)
(check-sat)
(get-objectives)
(exit)
